(set-logic QF_BV)
(declare-fun _substvar_1839_ () (_ BitVec 16))
(declare-fun _substvar_3626_ () (_ BitVec 32))
(declare-fun _substvar_4200_ () (_ BitVec 32))
(declare-fun _substvar_3831_ () (_ BitVec 32))
(declare-fun _substvar_4812_ () Bool)
(declare-fun _substvar_4360_ () (_ BitVec 32))
(declare-fun _substvar_3600_ () (_ BitVec 8))
(declare-fun _substvar_4730_ () Bool)
(declare-fun _substvar_1849_ () (_ BitVec 16))
(declare-fun _substvar_4369_ () (_ BitVec 8))
(declare-fun _substvar_4727_ () Bool)
(declare-fun _substvar_3826_ () (_ BitVec 32))
(declare-fun _substvar_4164_ () (_ BitVec 32))
(declare-fun _substvar_3841_ () (_ BitVec 32))
(declare-fun _substvar_4212_ () (_ BitVec 32))
(declare-fun _substvar_4195_ () (_ BitVec 32))
(declare-fun _substvar_4806_ () Bool)
(declare-fun _substvar_4791_ () Bool)
(declare-fun _substvar_3829_ () (_ BitVec 32))
(declare-fun _substvar_3832_ () (_ BitVec 32))
(declare-fun _substvar_4507_ () (_ BitVec 32))
(declare-fun _substvar_4429_ () (_ BitVec 32))
(declare-fun _substvar_4519_ () (_ BitVec 32))
(declare-fun _substvar_3486_ () (_ BitVec 32))
(declare-fun _substvar_4726_ () Bool)
(declare-fun _substvar_4191_ () (_ BitVec 32))
(declare-fun _substvar_4729_ () Bool)
(declare-fun _substvar_4728_ () Bool)
(declare-fun _substvar_3941_ () (_ BitVec 8))
(declare-fun _substvar_4440_ () (_ BitVec 32))
(declare-fun _substvar_4206_ () (_ BitVec 32))
(declare-fun _substvar_4814_ () Bool)
(declare-fun _substvar_4823_ () Bool)
(declare-fun _substvar_3107_ () (_ BitVec 32))
(declare-fun _substvar_4725_ () Bool)
(declare-fun _substvar_4498_ () (_ BitVec 32))
(declare-fun _substvar_3944_ () (_ BitVec 8))
(assert (let ( (?v_307 ((_ zero_extend 24) _substvar_4369_)) (?v_297 ((_ zero_extend 24) _substvar_3941_)) (?v_285 ((_ zero_extend 24) _substvar_3944_)) (?v_277 ((_ zero_extend 24) _substvar_3600_)) (?v_267 ((_ zero_extend 16) _substvar_1839_))) (let ( (?v_251 ((_ zero_extend 16) _substvar_1849_))) (let ((?v_254 (bvadd (bvadd (_ bv0 32) (_ bv4268262 32)) ?v_251))) (let ((?v_270 (bvadd (bvadd (bvadd ?v_254 (_ bv15 32)) (_ bv0 32)) (_ bv2 32)))) (let ((?v_269 (bvadd ?v_270 ?v_267))) (let ((?v_275 (bvadd (bvadd ?v_269 (_ bv7 32)) _substvar_4191_))) (let ((?v_283 (bvadd (bvadd ?v_275 (_ bv3 32)) ?v_277))) (let ((?v_295 (bvadd (bvadd ?v_283 (_ bv0 32)) ?v_285))) (let ((?v_305 (bvadd (bvadd ?v_295 (_ bv0 32)) ?v_297))) (let ((?v_315 (bvadd (bvadd ?v_305 (_ bv0 32)) ?v_307))) (let ((?v_331 (bvadd (_ bv0 32) _substvar_3841_))) (let ((?v_342 (bvsub (bvadd (bvadd ?v_331 (_ bv0 32)) _substvar_3486_) (_ bv4268231 32)))) (let ((?v_343 (bvsub (_ bv0 32) (_ bv1 32))) (?v_344 (bvadd ?v_342 (_ bv4268260 32)))) (let ( (?v_340 (bvadd (_ bv0 32) (_ bv4268232 32)))) (let ((?v_333 (bvsub (bvadd ?v_340 _substvar_3486_) (_ bv1 32)))) (let ( (?v_316 (bvsub ?v_315 (_ bv4268231 32)))) (let ((?v_328 (bvadd _substvar_3841_ ?v_316))) (and true true true true true true true true true true true true true true true true true true true true true true true true true true true true true true true true true true true true true true true true true true true true true true true true true true true true true true true true true true true true true true true true true true true true true true true true true true true true true true true true true true true true true true true true true true true true true true true true true true true true true true true true true true true true true true true true true true true true true true true true true true true true true true true true true true true true true true true true true true true true true true true true true true true true true true true true true true true true true true true true true true true true true true true true true true true true true true true true true true true true true true true true true true true true true true true true true true true true true true true true true true true true true true true true true true true true true true true true true true true true true true true true true true true true true true true true true true true true true true true true true true true true true true true true true true true true true true true true true true true true true true true true true true true true true true true true true true true true true true true true true true true true true true true true true true true true true true true true true true true true true true true true true true true true true true true true true true true true true true true true true true true true true true true true true true true true true true true true true true true true true true true true true true true true true true true true true true true true true true true true true true true true true true true true true true true true true true (bvule (_ bv4 32) _substvar_3832_) true true true (bvule (_ bv1 32) _substvar_4429_) (bvule (_ bv2 32) _substvar_3831_) true true (bvule (_ bv1 32) _substvar_4440_) _substvar_4823_ (bvule _substvar_3829_ (_ bv24 32)) true true true true true true true true true true (bvult (_ bv24 32) _substvar_3826_) (bvule (_ bv5 32) _substvar_4498_) (bvule (_ bv7 32) _substvar_4519_) true true true true true true true true true true true true true true true true true true true (bvult _substvar_4507_ (_ bv2147483648 32)) true true true true true true true true true true true true true true true true true true true true true true true (bvslt (_ bv0 32) _substvar_4164_) (bvule _substvar_3626_ (_ bv22 32)) _substvar_4730_ true true true true true true _substvar_4729_ true true true _substvar_4728_ true true true true true true true true _substvar_4727_ true true true true true true true true true true true true true true true true true true true true true true true true true true true true true true true true true true true true true true true true true true true true true true true true true true true true true true true true true true true true true true true true true true true _substvar_4726_ _substvar_4725_ true true true true true true true true true true true true true true true true true true true true true true true true true true true true true true true true true true true true true true true true true _substvar_4812_ _substvar_4814_ (bvult (_ bv58997228 32) _substvar_3107_) true true true true true true true true true true true true true true true true true true true true true true true true true true true true true true true true true true true true true true true true true true (= _substvar_4191_ (_ bv1 32)) true true true true true true true true true true true true true true true true true true true true true true true true true true true true true _substvar_4806_ true true true true (not (= _substvar_4360_ (_ bv0 32))) true (bvule _substvar_4206_ _substvar_4212_) true _substvar_4791_ (bvule _substvar_4195_ _substvar_4200_) true true true true true true true true true true true true true true true true true true true true true true true true true true true true true true true true true true (bvule ?v_328 (_ bv846 32)) (bvule ?v_316 ?v_328) true true true true true true true true true (bvult (_ bv0 32) ?v_333) true true true true true true true true (bvule ?v_340 ?v_333) true true true true true true true (bvule ?v_343 ?v_344) true true true true true true true true true true true)))))))))))))))))))
(check-sat)
(exit)
